WARNING: for repeatability, setting FPU to use double precision
============================[ Problem Statistics ]=============================
|                                                                             |
|  Number of variables:            50                                         |
|  Number of clauses:             218                                         |
|  Parse time:                   0.00 s                                       |
|                                                                             |
============================[ Search Statistics ]==============================
| Conflicts |          ORIGINAL         |          LEARNT          | Progress |
|           |    Vars  Clauses Literals |    Limit  Clauses Lit/Cl |          |
===============================================================================
===============================================================================
restarts              : 1
conflicts             : 76             (296875 /sec)
decisions             : 105            (0.00 % random) (410156 /sec)
propagations          : 1117           (4363281 /sec)
conflict literals     : 365            (13.92 % deleted)
Memory used           : 20.00 MB
CPU time              : 0.000256 s

SATISFIABLE
